NAME : portcgen-16-7
COMMENT : portcgen N=16, seed=7
TYPE : TSP
DIMENSION : 16
EDGE_WEIGHT_TYPE : EUC_2D
NODE_COORD_SECTION
1 159641 -225785
2 -67821 404752
3 195526 -75247
4 -300204 -316596
5 -423080 107782
6 -21703 -211682
7 -484215 -266181
8 232186 233005
9 -12574 -281688
10 969 -45460
11 160535 -29566
12 28393 -390487
13 -605987 201105
14 -369506 249816
15 469693 345804
16 -115416 153572
